n_machines = 2;
n_resources = 4;
n_jobs = 20;
horizon = 8303;
LB = 4151;
n_jobs_per_resource = [5, 5, 5, 5];
duration = [887, 380, 220, 263, 179, 25, 162, 448, 315, 250, 532, 95, 218, 522, 927, 684, 676, 371, 264, 885]